This is Ipopt version 3.14.14, running with linear solver MUMPS 5.6.2.

Number of nonzeros in equality constraint Jacobian...:        0
Number of nonzeros in inequality constraint Jacobian.:      121
Number of nonzeros in Lagrangian Hessian.............:        0

Total number of variables............................:       11
                     variables with only lower bounds:        0
                variables with lower and upper bounds:       11
                     variables with only upper bounds:        0
Total number of equality constraints.................:        0
Total number of inequality constraints...............:       11
        inequality constraints with only lower bounds:        0
   inequality constraints with lower and upper bounds:        0
        inequality constraints with only upper bounds:       11

iter    objective    inf_pr   inf_du lg(mu)  ||d||  lg(rg) alpha_du alpha_pr  ls
   0  1.1375653e-02 0.00e+00 6.12e-01   0.0 0.00e+00    -  0.00e+00 0.00e+00   0
   1  1.1374291e-02 0.00e+00 7.89e-03  -5.6 5.89e-04    -  9.87e-01 1.00e+00f  1
   2  1.1184669e-02 0.00e+00 2.57e-03  -3.2 1.07e-01    -  9.77e-01 1.00e+00f  1
   3  1.0318964e-02 0.00e+00 4.70e-03  -3.9 3.35e-01    -  9.99e-01 1.00e+00h  1
   4  7.9528752e-03 0.00e+00 8.15e-03  -4.5 9.23e-01    -  1.00e+00 1.00e+00h  1
   5  7.8045257e-03 0.00e+00 9.05e-03  -5.7 5.78e-01    -  1.00e+00 1.00e+00h  1
   6  7.3616775e-03 0.00e+00 8.42e-03  -3.7 8.60e+00    -  1.00e+00 4.72e-02h  2
   7  7.0535511e-03 0.00e+00 1.64e-02  -4.2 1.18e+00    -  1.00e+00 1.00e+00H  1
   8  6.7530316e-03 0.00e+00 2.42e-03  -4.8 4.90e-01    -  1.00e+00 1.00e+00h  1
   9  6.6783771e-03 0.00e+00 1.21e-03  -4.5 1.22e-01    -  1.00e+00 1.00e+00h  1
iter    objective    inf_pr   inf_du lg(mu)  ||d||  lg(rg) alpha_du alpha_pr  ls
  10  6.4489398e-03 0.00e+00 4.87e-03  -5.1 6.12e-02    -  9.99e-01 1.00e+00h  1
  11  7.0096105e-03 0.00e+00 6.37e-03  -3.8 6.10e-01    -  1.00e+00 9.92e-01h  1
  12  6.7139795e-03 0.00e+00 3.80e-03  -3.7 2.82e-01    -  1.00e+00 1.00e+00h  1
  13  6.5891776e-03 0.00e+00 1.92e-03  -3.7 2.68e-01    -  1.00e+00 1.00e+00h  1
  14  6.2484160e-03 0.00e+00 3.55e-03  -3.7 2.07e-01    -  1.00e+00 1.00e+00h  1
  15  2.2260659e-02 0.00e+00 1.55e-01  -3.0 1.96e+00    -  1.00e+00 1.00e+00H  1
  16  1.7261708e-02 0.00e+00 7.28e-02  -3.1 1.23e+01    -  4.13e-02 4.91e-03f  5
  17  1.6344910e-02 8.27e-01 6.22e-02  -3.1 2.25e+01    -  1.46e-01 4.85e-01H  1
  18  1.0342934e-02 0.00e+00 2.11e-02  -3.1 1.73e+01    -  6.93e-01 2.31e-01h  1
  19  9.5180058e-03 0.00e+00 7.34e-03  -3.1 1.22e+01    -  9.43e-01 1.00e+00h  1
iter    objective    inf_pr   inf_du lg(mu)  ||d||  lg(rg) alpha_du alpha_pr  ls
  20  9.6258928e-03 0.00e+00 1.56e-02  -3.1 2.07e+00    -  9.57e-01 8.82e-02h  3
  21  1.2264309e-02 0.00e+00 2.28e-02  -3.1 1.74e+00    -  1.00e+00 9.66e-01H  1
  22  7.6043565e-03 0.00e+00 4.62e-02  -3.1 4.52e+00    -  9.18e-01 1.00e+00f  1
  23  7.4445508e-03 0.00e+00 1.12e-02  -3.1 6.46e+00    -  2.61e-01 1.00e+00h  1
  24  5.7205039e-03 0.00e+00 1.03e-02  -3.1 4.20e+00    -  1.00e+00 1.00e+00h  1
  25  7.1100235e-03 0.00e+00 4.94e-02  -3.6 1.36e+00    -  1.00e+00 1.00e+00H  1
  26  4.4660238e-03 0.00e+00 8.40e-03  -3.7 2.32e+00    -  4.27e-01 1.00e+00h  1
  27  4.2931699e-03 0.00e+00 5.49e-03  -4.7 4.10e-01    -  1.00e+00 1.00e+00h  1
  28  4.0863162e-03 0.00e+00 6.72e-03  -5.8 6.57e-02    -  1.00e+00 1.00e+00h  1
  29  3.8278403e-03 0.00e+00 1.43e-02  -3.7 1.14e+01    -  1.00e+00 1.78e-02h  2
iter    objective    inf_pr   inf_du lg(mu)  ||d||  lg(rg) alpha_du alpha_pr  ls
  30  3.3782217e-03 0.00e+00 5.22e-03  -4.3 3.13e-01    -  9.99e-01 1.00e+00h  1
  31  2.8562924e-03 0.00e+00 5.13e-03  -5.1 8.95e-01    -  1.00e+00 1.00e+00h  1
  32  3.1752593e-03 0.00e+00 7.47e-03  -3.5 8.45e-01    -  1.00e+00 2.83e-01h  2
  33  2.8101667e-03 0.00e+00 4.90e-03  -3.6 3.51e-01    -  1.00e+00 1.00e+00h  1
  34  2.4557954e-03 0.00e+00 6.48e-03  -4.7 2.47e-01    -  1.00e+00 1.00e+00h  1
  35  2.0122043e-03 0.00e+00 5.06e-03  -5.8 6.97e-01    -  1.00e+00 1.00e+00h  1
  36  1.8872014e-03 2.02e+00 2.36e-02  -4.5 6.75e-01    -  1.00e+00 1.00e+00h  1
  37  1.9852286e-03 0.00e+00 4.10e-03  -5.0 1.74e-01    -  1.00e+00 1.00e+00h  1
  38  1.8748407e-03 0.00e+00 3.33e-03  -4.7 5.89e-01    -  1.00e+00 1.00e+00h  1
  39  3.5032283e-03 8.09e-01 2.78e-02  -3.8 2.17e+00    -  1.00e+00 4.26e-01H  1
iter    objective    inf_pr   inf_du lg(mu)  ||d||  lg(rg) alpha_du alpha_pr  ls
  40  2.0935984e-03 0.00e+00 4.55e-03  -3.9 1.21e+00    -  1.00e+00 1.00e+00h  1
  41  1.8452556e-03 0.00e+00 1.17e-01  -5.0 6.01e-01    -  1.00e+00 1.00e+00h  1
  42  1.7933643e-03 0.00e+00 1.83e-03  -5.6 1.51e-02    -  9.98e-01 1.00e+00h  1
  43  1.7245449e-03 1.30e-01 2.48e-03  -6.6 5.18e-01    -  1.00e+00 1.00e+00h  1
  44  1.6468495e-03 4.47e-01 1.88e-02  -4.8 8.78e+00    -  1.00e+00 1.00e+00h  1
  45  1.7349500e-03 0.00e+00 3.56e-03  -4.6 1.14e+00    -  1.00e+00 1.00e+00h  1
  46  1.4766757e-03 0.00e+00 6.43e-03  -4.6 8.10e+00    -  1.00e+00 9.57e-01h  1
  47  2.7232466e-03 0.00e+00 1.43e-02  -3.5 3.12e+01    -  4.50e-02 5.96e-02f  3
  48  1.7731153e-03 0.00e+00 1.35e-02  -4.4 3.37e+00    -  8.26e-01 3.79e-01h  1
  49  1.0230443e-03 0.00e+00 3.74e-03  -4.4 1.78e+00    -  1.18e-01 1.44e-01h  1
iter    objective    inf_pr   inf_du lg(mu)  ||d||  lg(rg) alpha_du alpha_pr  ls
  50  8.2961394e-04 0.00e+00 5.74e-03  -4.7 3.29e-01    -  1.00e+00 7.11e-01h  1
  51  9.9758691e-04 0.00e+00 4.67e-03  -4.2 3.46e-01    -  1.00e+00 1.00e+00h  1
  52  1.4823217e-03 0.00e+00 1.70e-02  -4.3 1.94e-01    -  6.85e-01 1.00e+00h  1
  53  9.3740955e-04 0.00e+00 4.05e-03  -4.3 2.05e-01    -  1.00e+00 9.22e-01h  1
  54  8.1091400e-04 0.00e+00 2.39e-03  -4.3 1.70e-01    -  1.00e+00 8.91e-01f  1
  55  7.0161257e-04 0.00e+00 3.50e-03  -4.6 3.12e-01    -  1.00e+00 9.94e-01H  1
  56  7.4492673e-04 0.00e+00 2.29e-03  -4.3 2.02e-01    -  1.00e+00 1.00e+00h  1
  57  8.6880822e-04 0.00e+00 3.37e-03  -4.4 1.86e-01    -  1.00e+00 1.00e+00H  1
  58  5.8487030e-04 7.02e-02 1.18e-03  -5.0 1.25e-01    -  1.00e+00 1.00e+00h  1
  59  6.0433962e-04 0.00e+00 5.30e-04  -5.1 7.82e-02    -  1.00e+00 1.00e+00h  1
iter    objective    inf_pr   inf_du lg(mu)  ||d||  lg(rg) alpha_du alpha_pr  ls
  60  5.5548884e-04 0.00e+00 6.90e-04  -6.5 7.73e-02    -  1.00e+00 1.00e+00h  1
  61  1.2561081e-03 0.00e+00 7.95e-03  -4.5 5.63e-01    -  1.00e+00 1.00e+00H  1
  62  9.9502199e-04 1.45e+00 1.01e-01  -4.5 3.20e-01    -  1.00e+00 1.00e+00h  1
  63  5.4477619e-04 9.53e-02 1.79e-03  -4.5 4.61e-01    -  9.17e-01 5.87e-01h  1
  64  1.3290521e-03 0.00e+00 3.58e-02  -3.9 4.20e-01    -  9.05e-01 1.00e+00f  1
  65  1.0968174e-03 0.00e+00 5.12e-02  -4.0 5.43e-01    -  1.00e+00 1.00e+00H  1
  66  8.3701931e-04 2.45e+00 9.76e-02  -4.0 8.19e-01    -  7.03e-01 4.40e-01h  2
  67  8.6150048e-04 1.88e+00 1.69e-02  -4.0 4.96e+00    -  5.60e-01 2.39e-01h  3
  68  7.6049611e-04 1.80e-01 2.74e-03  -4.0 9.72e+00    -  5.86e-01 3.10e-01h  2
  69  7.7653701e-04 2.46e-01 1.85e-03  -4.0 5.41e+00    -  1.00e+00 4.70e-01h  2
iter    objective    inf_pr   inf_du lg(mu)  ||d||  lg(rg) alpha_du alpha_pr  ls
  70  1.4848825e-03 1.06e+00 1.79e-02  -4.0 5.31e+00    -  1.00e+00 2.39e-01h  2
  71  8.9285260e-04 6.88e-01 1.16e-02  -4.0 1.29e+00    -  1.00e+00 4.93e-01h  2
  72  7.0352786e-04 3.87e-01 2.49e-03  -4.0 1.25e+00    -  7.96e-01 2.68e-01h  2
  73  9.3301118e-04 0.00e+00 1.35e-03  -4.0 8.58e-01    -  1.00e+00 9.32e-01h  1
  74  1.0832909e-03 0.00e+00 5.28e-03  -4.0 7.99e-01    -  1.00e+00 1.00e+00f  1
  75  9.3436771e-04 0.00e+00 1.36e-03  -4.0 4.29e-01    -  1.00e+00 1.00e+00h  1
  76  9.5687341e-04 0.00e+00 8.42e-04  -4.0 1.05e-01    -  1.00e+00 1.00e+00h  1
  77  7.9813262e-04 0.00e+00 1.58e-03  -4.5 2.41e-01    -  1.00e+00 4.92e-01h  2
  78  6.2159253e-04 0.00e+00 1.50e-03  -4.5 2.05e-01    -  1.00e+00 1.00e+00h  1
  79  6.2851234e-04 0.00e+00 3.26e-04  -4.5 7.49e-02    -  1.00e+00 1.00e+00h  1
iter    objective    inf_pr   inf_du lg(mu)  ||d||  lg(rg) alpha_du alpha_pr  ls
  80  6.4219898e-04 0.00e+00 6.88e-04  -4.5 4.56e-02    -  1.00e+00 1.00e+00h  1
  81  5.6856011e-04 0.00e+00 2.25e-03  -5.3 1.58e-01    -  1.00e+00 1.00e+00h  1
  82  5.8131639e-04 5.28e-02 2.23e-03  -5.3 4.54e-02    -  1.00e+00 1.00e+00h  1
  83  5.4053219e-04 7.51e-03 3.59e-04  -5.3 3.71e-02    -  1.00e+00 1.00e+00h  1
  84  5.3495556e-04 5.37e-03 3.32e-04  -6.3 4.59e-02    -  1.00e+00 1.00e+00h  1
  85  5.3405335e-04 0.00e+00 2.36e-04  -6.2 4.46e-02    -  1.00e+00 1.00e+00h  1
  86  6.1391656e-04 0.00e+00 3.47e-03  -5.6 1.37e-01    -  1.00e+00 1.00e+00H  1
  87  5.2616940e-04 2.43e-02 4.44e-04  -6.3 1.10e-01    -  1.00e+00 1.00e+00h  1
  88  5.1663688e-04 4.67e-02 6.98e-04  -5.9 6.84e-02    -  1.00e+00 1.00e+00h  1
  89  5.2813578e-04 4.80e-03 1.43e-04  -6.0 3.26e-02    -  1.00e+00 1.00e+00h  1
iter    objective    inf_pr   inf_du lg(mu)  ||d||  lg(rg) alpha_du alpha_pr  ls
  90  5.2741970e-04 1.26e-03 5.38e-05  -6.9 2.80e-02    -  1.00e+00 1.00e+00h  1
  91  5.3099855e-04 7.31e-05 2.16e-04  -6.1 5.15e-02    -  1.00e+00 1.00e+00h  1
  92  5.2959338e-04 0.00e+00 2.43e-05  -6.2 3.88e-02    -  1.00e+00 1.00e+00H  1
  93  5.2647671e-04 2.11e-04 4.47e-05  -7.8 3.17e-02    -  1.00e+00 1.00e+00h  1
  94  5.5296433e-04 0.00e+00 1.47e-03  -6.3 1.61e-01    -  1.00e+00 1.00e+00H  1
  95  5.1655466e-04 3.13e-02 3.69e-04  -6.4 1.63e-01    -  5.07e-01 1.00e+00h  1
  96  5.2828553e-04 5.22e-02 8.50e-04  -5.3 4.06e+00    -  1.00e+00 2.77e-02h  6
  97  9.2888830e-04 3.13e-04 8.51e-03  -5.4 4.60e-01    -  6.92e-01 1.00e+00h  1
  98  7.9917173e-04 0.00e+00 5.55e-03  -5.4 5.70e-01    -  1.00e+00 1.83e-01h  3
  99  7.2406938e-04 0.00e+00 4.63e-03  -5.4 1.12e+00    -  1.39e-01 5.57e-02h  3
iter    objective    inf_pr   inf_du lg(mu)  ||d||  lg(rg) alpha_du alpha_pr  ls
 100  6.7359495e-04 0.00e+00 3.37e-03  -5.4 5.11e+00    -  8.35e-02 1.00e-02h  5
 101  6.5551638e-04 0.00e+00 3.38e-03  -5.4 4.49e-01    -  1.00e+00 6.68e-02h  3
 102  6.2915546e-04 0.00e+00 2.96e-03  -5.4 5.87e-01    -  9.44e-01 3.40e-01h  2
 103  5.6745483e-04 0.00e+00 1.10e-03  -5.4 8.80e-02    -  7.34e-01 1.00e+00h  1
 104  5.5196720e-04 0.00e+00 6.65e-04  -5.4 3.55e-01    -  1.00e+00 3.88e-01h  1
 105  5.7433067e-04 0.00e+00 2.05e-03  -5.4 1.41e-01    -  1.00e+00 1.00e+00F  1
 106  5.5008132e-04 0.00e+00 5.62e-04  -5.4 8.49e-02    -  1.00e+00 1.00e+00h  1
 107  5.8926291e-04 0.00e+00 1.06e-03  -5.4 1.29e-01    -  1.00e+00 1.00e+00H  1
 108  5.3945727e-04 0.00e+00 5.95e-04  -5.4 1.47e-01    -  1.00e+00 1.00e+00H  1
 109  5.5211258e-04 0.00e+00 5.15e-04  -5.4 8.59e-02    -  1.00e+00 1.00e+00H  1
iter    objective    inf_pr   inf_du lg(mu)  ||d||  lg(rg) alpha_du alpha_pr  ls
 110  5.4845277e-04 1.15e-03 7.97e-04  -5.4 5.34e-02    -  1.00e+00 1.00e+00h  1
 111  5.4061549e-04 0.00e+00 4.83e-04  -5.4 1.35e-01    -  1.00e+00 4.30e-01h  2
 112  5.4901014e-04 0.00e+00 4.48e-04  -5.4 2.64e-02    -  1.00e+00 1.00e+00h  1
 113  5.5577739e-04 0.00e+00 1.03e-03  -5.4 1.41e-02    -  1.00e+00 1.00e+00H  1
 114  5.4318465e-04 0.00e+00 2.49e-04  -5.4 2.04e-02    -  1.00e+00 1.00e+00h  1
 115  5.4625407e-04 0.00e+00 1.38e-04  -5.4 1.29e-02    -  1.00e+00 1.00e+00h  1
 116  5.4580455e-04 0.00e+00 8.76e-06  -5.4 5.49e-03    -  1.00e+00 1.00e+00h  1
 117  5.3685691e-04 0.00e+00 3.93e-04  -6.9 4.10e-02    -  9.85e-01 9.97e-01h  1
 118  5.3575903e-04 8.05e-04 1.59e-04  -6.6 1.03e-01    -  9.42e-01 3.91e-01h  2
 119  5.3388709e-04 0.00e+00 8.75e-05  -6.6 3.92e-02    -  5.85e-01 4.02e-01h  1
iter    objective    inf_pr   inf_du lg(mu)  ||d||  lg(rg) alpha_du alpha_pr  ls
 120  5.2193625e-04 2.13e-02 4.40e-04  -6.6 1.37e-01    -  1.00e+00 7.63e-01f  1
 121  5.5061936e-04 0.00e+00 5.81e-04  -5.7 1.63e-01    -  1.00e+00 1.00e+00f  1
 122  5.3651569e-04 1.53e-03 8.03e-05  -5.7 1.36e-01    -  1.00e+00 1.00e+00h  1
 123  5.3391647e-04 4.01e-03 4.81e-04  -5.7 2.16e-01    -  1.00e+00 3.22e-01h  2
 124  5.3473188e-04 4.20e-04 3.99e-04  -5.7 4.28e-02    -  1.00e+00 1.00e+00h  1
 125  5.3691520e-04 0.00e+00 2.44e-04  -5.7 5.94e-02    -  1.00e+00 1.00e+00h  1
 126  5.4202203e-04 0.00e+00 3.50e-04  -5.7 3.34e-02    -  1.00e+00 1.00e+00h  1
 127  5.3575829e-04 0.00e+00 1.47e-04  -5.7 2.91e-02    -  1.00e+00 1.00e+00h  1
 128  5.3927099e-04 0.00e+00 6.47e-04  -5.7 4.42e-02    -  1.00e+00 1.00e+00H  1
 129  5.3789167e-04 0.00e+00 2.21e-04  -5.7 5.24e-02    -  1.00e+00 1.00e+00H  1
iter    objective    inf_pr   inf_du lg(mu)  ||d||  lg(rg) alpha_du alpha_pr  ls
 130  4.9952810e-04 1.53e-01 1.39e-03  -6.3 6.85e-01    -  1.00e+00 4.32e-01h  1
 131  4.8634488e-04 1.09e-01 2.18e-04  -5.9 2.61e-01    -  1.00e+00 1.00e+00h  1
 132  6.4356666e-04 0.00e+00 6.56e-04  -5.6 2.29e-01    -  8.28e-01 1.00e+00H  1
 133  7.9642943e-04 3.82e-02 7.58e-03  -5.7 2.74e-01    -  1.00e+00 1.00e+00H  1
 134  6.5668904e-04 3.92e-02 4.13e-03  -5.7 2.90e+00    -  1.00e+00 5.02e-02h  1
 135  5.8612205e-04 0.00e+00 2.04e-03  -5.7 3.61e-01    -  3.84e-01 5.78e-01h  1
 136  5.8703010e-04 0.00e+00 2.44e-03  -5.7 2.16e-01    -  4.56e-01 1.00e+00h  1
 137  5.7439394e-04 3.37e-03 2.82e-03  -5.7 6.39e-02    -  1.00e+00 1.00e+00h  1
 138  5.4083725e-04 0.00e+00 5.63e-04  -5.7 2.15e-01    -  1.00e+00 5.30e-01h  1
 139  5.3933864e-04 0.00e+00 1.00e-03  -5.7 5.91e-02    -  1.00e+00 1.00e+00f  1
iter    objective    inf_pr   inf_du lg(mu)  ||d||  lg(rg) alpha_du alpha_pr  ls
 140  5.3168007e-04 5.18e-03 2.85e-04  -5.7 1.03e-01    -  9.12e-01 1.00e+00h  1
 141  5.7877984e-04 0.00e+00 1.25e-03  -5.7 1.88e-01    -  1.00e+00 1.00e+00H  1
 142  5.4621339e-04 0.00e+00 4.91e-04  -5.7 1.87e-01    -  1.00e+00 1.00e+00H  1
 143  5.3961469e-04 0.00e+00 3.80e-04  -5.7 8.33e-01    -  4.78e-01 1.87e-02h  3
 144  5.4039459e-04 0.00e+00 3.00e-04  -5.7 1.11e-01    -  1.00e+00 5.00e-01h  2
 145  5.3536071e-04 0.00e+00 3.55e-04  -5.7 1.57e-01    -  1.00e+00 5.63e-01h  1
 146  5.3818271e-04 0.00e+00 6.41e-05  -5.7 7.98e-02    -  1.00e+00 1.00e+00f  1
 147  5.3873404e-04 0.00e+00 4.45e-04  -5.7 2.06e-01    -  1.00e+00 8.82e-02h  4
 148  5.3581508e-04 0.00e+00 4.07e-05  -5.7 1.30e-02    -  1.00e+00 1.00e+00h  1
 149  5.3609980e-04 0.00e+00 9.46e-06  -5.7 3.94e-03    -  1.00e+00 1.00e+00h  1
iter    objective    inf_pr   inf_du lg(mu)  ||d||  lg(rg) alpha_du alpha_pr  ls
 150  5.2939171e-04 0.00e+00 1.57e-04  -7.2 9.25e-02    -  9.98e-01 1.00e+00h  1
 151  5.2433864e-04 8.37e-03 1.84e-04  -7.0 1.94e-01    -  1.00e+00 3.09e-01h  1
 152  5.3407177e-04 0.00e+00 8.60e-04  -8.1 8.29e-02    -  9.89e-01 1.00e+00H  1
 153  5.2455323e-04 6.52e-03 4.54e-04  -7.9 1.11e-01    -  3.58e-01 6.03e-01h  1
 154  5.3490494e-04 4.18e-03 1.05e-03  -6.5 1.17e+00    -  2.39e-01 1.25e-01h  4
 155  3.3707394e-03 0.00e+00 2.53e-02  -6.7 6.04e-01    -  1.51e-01 1.00e+00H  1
 156  3.2588474e-03 2.25e-03 2.48e-02  -6.7 6.33e-01    -  1.00e+00 1.56e-02h  7
 157  3.2183237e-03 3.03e-03 2.42e-02  -6.7 4.89e+00    -  3.07e-02 8.05e-04h  7
 158  3.1860653e-03 1.48e-04 2.36e-02  -6.7 9.95e-01    -  1.13e-01 6.77e-03h  3
 159  3.1027158e-03 1.17e-03 2.29e-02  -6.7 4.67e-01    -  9.84e-02 1.16e-02h  3
iter    objective    inf_pr   inf_du lg(mu)  ||d||  lg(rg) alpha_du alpha_pr  ls
 160  2.7070550e-03 0.00e+00 2.03e-02  -6.7 7.85e-01    -  9.64e-01 1.20e-01h  1
 161  2.6777800e-03 0.00e+00 2.00e-02  -6.7 1.21e+00    -  5.79e-02 4.32e-03h  1
 162  2.5356958e-03 0.00e+00 1.88e-02  -6.7 8.83e-01    -  1.00e+00 3.43e-02f  4
 163  2.4574399e-03 3.98e-04 1.80e-02  -6.7 2.53e+01    -  1.00e-02 7.02e-04h  6
 164  2.3853138e-03 1.49e-03 1.71e-02  -6.7 2.43e+02    -  4.68e-03 7.00e-05h  6
 165  2.3082538e-03 3.11e-03 1.61e-02  -6.7 2.02e+00    -  3.16e-01 7.91e-03h  1
 166  2.2754445e-03 3.39e-03 1.58e-02  -6.7 6.76e+00    -  2.67e-01 1.03e-03f  7
 167  1.9712129e-03 0.00e+00 1.22e-02  -6.7 1.81e+00    -  2.09e-02 3.38e-02h  4
 168  1.8768942e-03 0.00e+00 1.13e-02  -6.7 6.70e-01    -  9.34e-01 3.17e-02h  5
 169  1.8253327e-03 0.00e+00 1.05e-02  -6.7 3.62e-01    -  2.16e-01 2.57e-02h  6
iter    objective    inf_pr   inf_du lg(mu)  ||d||  lg(rg) alpha_du alpha_pr  ls
 170  1.7258770e-03 0.00e+00 9.96e-03  -6.7 3.63e-01    -  1.00e+00 4.67e-02h  5
 171  1.6634773e-03 5.39e-01 1.58e-02  -6.7 1.28e+00    -  1.56e-02 1.51e-01h  2
 172  1.2611413e-03 1.47e+00 9.44e-02  -6.7 1.64e+00    -  6.88e-01 8.50e-02h  1
 173  1.1740015e-03 6.89e-01 1.41e-02  -6.7 1.19e+01    -  1.56e-01 2.02e-01h  1
 174  1.0401820e-03 5.25e-01 5.58e-03  -6.7 2.85e+00    -  1.00e+00 8.48e-01h  1
 175  7.8466089e-04 3.58e+00 2.05e-01  -6.7 4.85e-01    -  1.09e-02 2.87e-01h  1
 176  7.5323650e-04 3.25e+00 1.55e-01  -6.7 1.86e-01    -  3.36e-01 8.28e-02h  1
 177  7.4989964e-04 3.24e+00 1.54e-01  -6.7 4.68e-01    -  2.08e-01 2.43e-03h  1
 178  7.2497149e-04 3.21e+00 1.47e-01  -6.7 1.36e+00    -  7.03e-01 8.21e-03h  1
 179  7.2666858e-04 3.21e+00 1.48e-01  -6.7 9.97e+01    -  4.35e-04 8.90e-06h  9
iter    objective    inf_pr   inf_du lg(mu)  ||d||  lg(rg) alpha_du alpha_pr  ls
 180  7.0254516e-04 3.12e+00 1.24e-01  -6.7 4.99e-01    -  1.42e-01 3.46e-02h  1
 181  7.0040623e-04 3.10e+00 1.22e-01  -6.7 2.95e-01    -  2.74e-01 4.50e-03h  1
 182  7.3574930e-04 3.10e+00 1.18e-01  -6.7 9.76e+00    -  1.59e-03 1.94e-03h  3
 183  7.8941806e-04 2.03e+00 5.96e-02  -6.7 1.17e-01    -  1.00e+00 4.41e-01h  1
 184  8.6791707e-04 1.34e+00 5.71e-02  -6.7 5.67e-02    -  9.45e-02 4.44e-01h  1
 185  9.1623599e-04 1.07e+00 5.14e-02  -6.7 1.38e-01    -  1.37e-01 3.03e-01h  1
 186  8.7836726e-04 9.87e-01 4.53e-02  -6.7 2.34e-01    -  2.82e-01 9.54e-02h  1
 187  1.2139823e-03 1.08e-02 6.44e-03  -6.7 2.80e-01    -  1.00e+00 9.22e-01h  1
 188  9.6334607e-04 0.00e+00 3.09e-03  -6.7 1.40e-01    -  1.00e+00 1.00e+00f  1
 189  8.5033340e-04 4.69e-01 3.33e-02  -6.7 7.37e-02    -  1.00e+00 6.05e-01h  1
iter    objective    inf_pr   inf_du lg(mu)  ||d||  lg(rg) alpha_du alpha_pr  ls
 190  7.0645654e-04 3.96e-01 2.43e-03  -6.7 3.65e-02    -  7.31e-01 1.00e+00h  1
 191  6.6748344e-04 3.88e-01 2.06e-03  -6.7 8.89e-01    -  2.58e-01 2.85e-02h  1
 192  6.6220116e-04 3.82e-01 2.06e-03  -6.7 2.15e-01    -  1.00e+00 1.62e-02f  1
 193  5.9548673e-04 2.04e-01 1.43e-03  -6.7 1.92e-01    -  2.94e-01 3.85e-01f  1
 194  4.9739554e-04 1.86e-01 3.37e-03  -6.7 5.82e+00    -  9.72e-02 7.56e-02h  1
 195  8.7641062e-04 0.00e+00 8.31e-03  -6.7 2.76e-01    -  1.14e-01 1.00e+00H  1
 196  7.5684890e-04 0.00e+00 5.94e-03  -6.7 9.67e-01    -  9.26e-01 1.24e-01h  1
 197  6.5967694e-04 0.00e+00 3.13e-03  -6.7 4.35e-01    -  1.21e-01 5.36e-01h  1
 198  5.9778639e-04 0.00e+00 1.52e-03  -6.7 4.17e-01    -  5.09e-01 1.66e-01h  1
 199  5.7022220e-04 0.00e+00 1.58e-03  -6.7 1.69e-01    -  8.32e-01 1.00e+00f  1
iter    objective    inf_pr   inf_du lg(mu)  ||d||  lg(rg) alpha_du alpha_pr  ls
 200  5.6752780e-04 0.00e+00 1.51e-03  -6.7 1.17e-01    -  5.52e-01 4.29e-02h  1

Number of Iterations....: 200

                                   (scaled)                 (unscaled)
Objective...............:   5.6752779977385225e-04    5.6752779977385225e-04
Dual infeasibility......:   1.5134409940058904e-03    1.5134409940058904e-03
Constraint violation....:   0.0000000000000000e+00    0.0000000000000000e+00
Variable bound violation:   0.0000000000000000e+00    0.0000000000000000e+00
Complementarity.........:   1.0898054698256824e-06    1.0898054698256824e-06
Overall NLP error.......:   1.5134409940058904e-03    1.5134409940058904e-03


Number of objective function evaluations             = 433
Number of objective gradient evaluations             = 201
Number of equality constraint evaluations            = 0
Number of inequality constraint evaluations          = 433
Number of equality constraint Jacobian evaluations   = 0
Number of inequality constraint Jacobian evaluations = 201
Number of Lagrangian Hessian evaluations             = 0
Total seconds in IPOPT                               = 23.040

EXIT: Maximum Number of Iterations Exceeded.
